152 121954
1 35 36 34 47 51 73 75 76 74 50 48 49 77 93 94 95 92 78 91 80 89 87 104 105 106 107 86 83 60 41 40 18 17 9 8 10 19 21 20 43 57 65 66 55 44 39 23 22 7 11 6 12 24 25 26 5 13 27 28 45 54 69 70 71 46 53 52 72 79 90 98 97 96 115 116 124 125 152 126 150 151 127 128 123 99 114 113 100 103 88 82 58 42 59 63 64 62 61 84 85 108 109 110 117 140 139 141 142 143 138 137 118 111 112 119 136 135 144 145 146 134 120 133 121 132 131 147 148 149 130 129 122 101 102 81 68 67 56 38 4 14 29 30 31 3 15 32 33 37 2 16 
